p cnf 412 698
-31 1 -42 76 0
-31 1 -42 -76 0
-27 -58 61 77 0
-27 -58 61 -77 0
-75 4 -70 78 0
-75 4 -70 -78 0
55 24 40 79 0
55 24 40 -79 0
72 -58 -50 80 0
72 -58 -50 -80 0
51 -2 68 81 0
51 -2 68 -81 0
-5 -24 2 82 0
-5 -24 2 -82 0
17 62 4 83 0
17 62 4 -83 0
-9 -7 -34 84 0
-9 -7 -34 -84 0
-10 -40 44 85 0
-10 -40 44 -85 0
-50 -44 17 86 0
-50 -44 17 -86 0
-61 -66 38 87 0
-61 -66 38 -87 0
-63 73 -11 88 0
-63 73 -11 -88 0
1 -18 44 89 0
1 -18 44 -89 0
-21 -75 -51 90 0
-21 -75 -51 -90 0
4 -33 -13 91 0
4 -33 -13 -91 0
-34 -61 -64 92 0
-34 -61 -64 -92 0
21 36 -43 93 0
21 36 -43 -93 0
-70 -29 -38 94 0
-70 -29 -38 -94 0
-8 -59 -25 95 0
-8 -59 -25 -95 0
74 -75 6 96 0
74 -75 6 -96 0
-52 60 68 97 0
-52 60 68 -97 0
69 -5 26 98 0
69 -5 26 -98 0
50 52 58 99 0
50 52 58 -99 0
-44 -21 -57 100 0
-44 -21 -57 -100 0
-39 -61 -56 101 0
-39 -61 -56 -101 0
34 45 52 102 0
34 45 52 -102 0
1 72 19 103 0
1 72 19 -103 0
46 67 53 104 0
46 67 53 -104 0
-59 73 34 105 0
-59 73 34 -105 0
-15 -75 -7 106 0
-15 -75 -7 -106 0
54 15 -36 107 0
54 15 -36 -107 0
-44 -23 -35 108 0
-44 -23 -35 -108 0
-62 -19 -45 109 0
-62 -19 -45 -109 0
53 -31 71 110 0
53 -31 71 -110 0
32 11 38 111 0
32 11 38 -111 0
59 -28 65 112 0
59 -28 65 -112 0
-57 -72 -63 113 0
-57 -72 -63 -113 0
-30 65 10 114 0
-30 65 10 -114 0
-47 -66 4 115 0
-47 -66 4 -115 0
-14 71 66 116 0
-14 71 66 -116 0
-5 -60 32 117 0
-5 -60 32 -117 0
21 54 -3 118 0
21 54 -3 -118 0
-49 -52 -37 119 0
-49 -52 -37 -119 0
-67 -17 -63 120 0
-67 -17 -63 -120 0
29 -12 -45 121 0
29 -12 -45 -121 0
-24 -67 29 122 0
-24 -67 29 -122 0
61 6 63 123 0
61 6 63 -123 0
-62 -4 -73 124 0
-62 -4 -73 -124 0
36 -66 58 125 0
36 -66 58 -125 0
-59 -1 4 126 0
-59 -1 4 -126 0
-55 75 -7 127 0
-55 75 -7 -127 0
-45 -31 55 128 0
-45 -31 55 -128 0
45 62 13 129 0
45 62 13 -129 0
51 26 65 130 0
51 26 65 -130 0
-64 15 -22 131 0
-64 15 -22 -131 0
20 57 66 132 0
20 57 66 -132 0
-18 -66 47 133 0
-18 -66 47 -133 0
12 19 -17 134 0
12 19 -17 -134 0
32 8 2 135 0
32 8 2 -135 0
-42 -3 30 136 0
-42 -3 30 -136 0
-55 14 -45 137 0
-55 14 -45 -137 0
-57 -25 -33 138 0
-57 -25 -33 -138 0
66 -17 -4 139 0
66 -17 -4 -139 0
-46 -58 67 140 0
-46 -58 67 -140 0
-73 -27 22 141 0
-73 -27 22 -141 0
-7 72 46 142 0
-7 72 46 -142 0
28 -56 -65 143 0
28 -56 -65 -143 0
72 -71 57 144 0
72 -71 57 -144 0
-57 27 19 145 0
-57 27 19 -145 0
7 20 43 146 0
7 20 43 -146 0
-29 -19 -23 147 0
-29 -19 -23 -147 0
32 17 34 148 0
32 17 34 -148 0
-73 20 -7 149 0
-73 20 -7 -149 0
16 -12 3 150 0
16 -12 3 -150 0
51 66 -46 151 0
51 66 -46 -151 0
-45 -47 -1 152 0
-45 -47 -1 -152 0
45 3 7 153 0
45 3 7 -153 0
15 21 50 154 0
15 21 50 -154 0
-73 17 1 155 0
-73 17 1 -155 0
-27 66 -71 156 0
-27 66 -71 -156 0
15 -55 -7 157 0
15 -55 -7 -157 0
-29 52 -55 158 0
-29 52 -55 -158 0
-73 -56 16 159 0
-73 -56 16 -159 0
-14 1 -13 160 0
-14 1 -13 -160 0
-16 -67 35 161 0
-16 -67 35 -161 0
75 55 68 162 0
75 55 68 -162 0
58 34 13 163 0
58 34 13 -163 0
-31 7 -74 164 0
-31 7 -74 -164 0
-59 17 -60 165 0
-59 17 -60 -165 0
-36 22 -53 166 0
-36 22 -53 -166 0
8 7 31 167 0
8 7 31 -167 0
-38 72 70 168 0
-38 72 70 -168 0
-69 65 10 169 0
-69 65 10 -169 0
52 19 31 170 0
52 19 31 -170 0
-22 -51 -58 171 0
-22 -51 -58 -171 0
51 -53 72 172 0
51 -53 72 -172 0
43 -16 -7 173 0
43 -16 -7 -173 0
-41 -59 -29 174 0
-41 -59 -29 -174 0
65 -28 9 175 0
65 -28 9 -175 0
-57 11 -74 176 0
-57 11 -74 -176 0
29 -60 -22 177 0
29 -60 -22 -177 0
-36 -34 16 178 0
-36 -34 16 -178 0
7 36 -64 179 0
7 36 -64 -179 0
25 1 -68 180 0
25 1 -68 -180 0
-56 -2 67 181 0
-56 -2 67 -181 0
-24 70 -61 182 0
-24 70 -61 -182 0
-46 56 10 183 0
-46 56 10 -183 0
-66 -29 -41 184 0
-66 -29 -41 -184 0
19 -14 -52 185 0
19 -14 -52 -185 0
-68 27 -74 186 0
-68 27 -74 -186 0
-60 -30 -33 187 0
-60 -30 -33 -187 0
21 45 -33 188 0
21 45 -33 -188 0
-34 -20 -9 189 0
-34 -20 -9 -189 0
50 18 -11 190 0
50 18 -11 -190 0
24 22 8 191 0
24 22 8 -191 0
61 65 -44 192 0
61 65 -44 -192 0
71 55 -14 193 0
71 55 -14 -193 0
7 -43 -63 194 0
7 -43 -63 -194 0
13 -17 5 195 0
13 -17 5 -195 0
5 67 -55 196 0
5 67 -55 -196 0
-27 75 50 197 0
-27 75 50 -197 0
-39 -13 -64 198 0
-39 -13 -64 -198 0
20 -47 40 199 0
20 -47 40 -199 0
-70 74 -22 200 0
-70 74 -22 -200 0
33 -26 -57 201 0
33 -26 -57 -201 0
-72 -64 70 202 0
-72 -64 70 -202 0
-55 -23 -24 203 0
-55 -23 -24 -203 0
41 19 35 204 0
41 19 35 -204 0
11 22 -20 205 0
11 22 -20 -205 0
22 -52 67 206 0
22 -52 67 -206 0
-73 61 18 207 0
-73 61 18 -207 0
3 -11 24 208 0
3 -11 24 -208 0
-14 19 -42 209 0
-14 19 -42 -209 0
69 -34 15 210 0
69 -34 15 -210 0
54 -12 -45 211 0
54 -12 -45 -211 0
12 60 16 212 0
12 60 16 -212 0
7 28 -41 213 0
7 28 -41 -213 0
46 -25 31 214 0
46 -25 31 -214 0
12 -8 -38 215 0
12 -8 -38 -215 0
-3 10 9 216 0
-3 10 9 -216 0
-45 -36 68 217 0
-45 -36 68 -217 0
-4 46 -37 218 0
-4 46 -37 -218 0
-33 -49 -68 219 0
-33 -49 -68 -219 0
-12 4 -48 220 0
-12 4 -48 -220 0
-47 30 55 221 0
-47 30 55 -221 0
-63 47 40 222 0
-63 47 40 -222 0
65 35 -50 223 0
65 35 -50 -223 0
-68 37 26 224 0
-68 37 26 -224 0
-26 37 -22 225 0
-26 37 -22 -225 0
44 58 3 226 0
44 58 3 -226 0
-27 24 50 227 0
-27 24 50 -227 0
-70 69 -42 228 0
-70 69 -42 -228 0
-22 -12 8 229 0
-22 -12 8 -229 0
66 23 68 230 0
66 23 68 -230 0
-60 65 61 231 0
-60 65 61 -231 0
-67 40 -47 232 0
-67 40 -47 -232 0
48 -26 -44 233 0
48 -26 -44 -233 0
-60 -17 -75 234 0
-60 -17 -75 -234 0
24 -55 -20 235 0
24 -55 -20 -235 0
20 -51 -31 236 0
20 -51 -31 -236 0
-27 -30 -9 237 0
-27 -30 -9 -237 0
49 -43 -65 238 0
49 -43 -65 -238 0
5 42 -3 239 0
5 42 -3 -239 0
2 -57 -47 240 0
2 -57 -47 -240 0
62 17 -14 241 0
62 17 -14 -241 0
-61 -49 7 242 0
-61 -49 7 -242 0
33 20 45 243 0
33 20 45 -243 0
8 -43 68 244 0
8 -43 68 -244 0
-2 -49 7 245 0
-2 -49 7 -245 0
11 -57 -22 246 0
11 -57 -22 -246 0
1 -59 -17 247 0
1 -59 -17 -247 0
9 -10 53 248 0
9 -10 53 -248 0
-40 -13 72 249 0
-40 -13 72 -249 0
51 33 30 250 0
51 33 30 -250 0
-34 9 55 251 0
-34 9 55 -251 0
-58 -67 39 252 0
-58 -67 39 -252 0
-73 53 35 253 0
-73 53 35 -253 0
-54 49 18 254 0
-54 49 18 -254 0
73 74 -35 255 0
73 74 -35 -255 0
-60 55 71 256 0
-60 55 71 -256 0
62 19 -70 257 0
62 19 -70 -257 0
52 -5 16 258 0
52 -5 16 -258 0
17 33 75 259 0
17 33 75 -259 0
-36 6 -21 260 0
-36 6 -21 -260 0
-57 -16 -21 261 0
-57 -16 -21 -261 0
-55 -42 75 262 0
-55 -42 75 -262 0
12 -43 -11 263 0
12 -43 -11 -263 0
-53 71 23 264 0
-53 71 23 -264 0
74 -66 -36 265 0
74 -66 -36 -265 0
61 42 -8 266 0
61 42 -8 -266 0
-63 -74 29 267 0
-63 -74 29 -267 0
69 60 -63 268 0
69 60 -63 -268 0
69 -65 -38 269 0
69 -65 -38 -269 0
46 -40 -59 270 0
46 -40 -59 -270 0
73 -45 11 271 0
73 -45 11 -271 0
68 39 28 272 0
68 39 28 -272 0
42 19 -61 273 0
42 19 -61 -273 0
71 16 62 274 0
71 16 62 -274 0
26 2 -68 275 0
26 2 -68 -275 0
-53 5 -22 276 0
-53 5 -22 -276 0
-18 3 -35 277 0
-18 3 -35 -277 0
47 66 3 278 0
47 66 3 -278 0
29 -15 -41 279 0
29 -15 -41 -279 0
44 73 36 280 0
44 73 36 -280 0
-60 9 34 281 0
-60 9 34 -281 0
67 -22 -65 282 0
67 -22 -65 -282 0
-9 -36 53 283 0
-9 -36 53 -283 0
69 -70 -43 284 0
69 -70 -43 -284 0
52 -40 -36 285 0
52 -40 -36 -285 0
-26 31 -49 286 0
-26 31 -49 -286 0
14 -71 -4 287 0
14 -71 -4 -287 0
41 -20 30 288 0
41 -20 30 -288 0
74 70 -8 289 0
74 70 -8 -289 0
1 72 48 290 0
1 72 48 -290 0
10 6 8 291 0
10 6 8 -291 0
-15 24 -35 292 0
-15 24 -35 -292 0
18 -32 5 293 0
18 -32 5 -293 0
-12 63 -10 294 0
-12 63 -10 -294 0
49 -21 66 295 0
49 -21 66 -295 0
24 -67 -19 296 0
24 -67 -19 -296 0
-34 8 -62 297 0
-34 8 -62 -297 0
-68 -25 20 298 0
-68 -25 20 -298 0
75 54 71 299 0
75 54 71 -299 0
-3 1 41 300 0
-3 1 41 -300 0
6 45 15 301 0
6 45 15 -301 0
-63 35 16 302 0
-63 35 16 -302 0
-39 19 47 303 0
-39 19 47 -303 0
67 15 63 304 0
67 15 63 -304 0
26 -19 -48 305 0
26 -19 -48 -305 0
-25 11 10 306 0
-25 11 10 -306 0
38 -46 -34 307 0
38 -46 -34 -307 0
51 16 -27 308 0
51 16 -27 -308 0
25 -45 -32 309 0
25 -45 -32 -309 0
19 69 -66 310 0
19 69 -66 -310 0
63 -44 71 311 0
63 -44 71 -311 0
74 25 47 312 0
74 25 47 -312 0
61 -37 53 313 0
61 -37 53 -313 0
-44 37 49 314 0
-44 37 49 -314 0
-75 48 -18 315 0
-75 48 -18 -315 0
-52 72 -20 316 0
-52 72 -20 -316 0
60 -33 -25 317 0
60 -33 -25 -317 0
57 -29 -8 318 0
57 -29 -8 -318 0
52 -17 -37 319 0
52 -17 -37 -319 0
-49 -72 -39 320 0
-49 -72 -39 -320 0
-42 39 45 321 0
-42 39 45 -321 0
61 70 36 322 0
61 70 36 -322 0
-57 -7 32 323 0
-57 -7 32 -323 0
65 -18 21 324 0
65 -18 21 -324 0
17 15 55 325 0
17 15 55 -325 0
48 -40 72 326 0
48 -40 72 -326 0
21 -45 -36 327 0
21 -45 -36 -327 0
13 -2 -71 328 0
13 -2 -71 -328 0
66 61 19 329 0
66 61 19 -329 0
34 -45 -51 330 0
34 -45 -51 -330 0
40 -24 -17 331 0
40 -24 -17 -331 0
37 4 73 332 0
37 4 73 -332 0
-47 33 32 333 0
-47 33 32 -333 0
-39 62 50 334 0
-39 62 50 -334 0
14 59 -62 335 0
14 59 -62 -335 0
66 -60 -56 336 0
66 -60 -56 -336 0
-65 46 -9 337 0
-65 46 -9 -337 0
-24 51 -73 338 0
-24 51 -73 -338 0
-11 -62 -59 339 0
-11 -62 -59 -339 0
-71 56 57 340 0
-71 56 57 -340 0
21 73 -2 341 0
21 73 -2 -341 0
-48 15 14 342 0
-48 15 14 -342 0
21 25 69 343 0
21 25 69 -343 0
-15 -4 -74 344 0
-15 -4 -74 -344 0
-70 26 -54 345 0
-70 26 -54 -345 0
-72 -30 -55 346 0
-72 -30 -55 -346 0
-54 -25 70 347 0
-54 -25 70 -347 0
65 63 -24 348 0
65 63 -24 -348 0
-10 -1 39 349 0
-10 -1 39 -349 0
-6 -51 10 350 0
-6 -51 10 -350 0
-68 43 -3 351 0
-68 43 -3 -351 0
41 -61 -72 352 0
41 -61 -72 -352 0
55 -47 30 353 0
55 -47 30 -353 0
42 -62 33 354 0
42 -62 33 -354 0
-39 47 -6 355 0
-39 47 -6 -355 0
-54 -2 20 356 0
-54 -2 20 -356 0
-28 -13 -25 357 0
-28 -13 -25 -357 0
27 41 -20 358 0
27 41 -20 -358 0
73 -4 -9 359 0
73 -4 -9 -359 0
41 16 43 360 0
41 16 43 -360 0
-66 -26 -39 361 0
-66 -26 -39 -361 0
75 -12 -3 362 0
75 -12 -3 -362 0
15 -12 -37 363 0
15 -12 -37 -363 0
10 -39 58 364 0
10 -39 58 -364 0
56 6 -43 365 0
56 6 -43 -365 0
43 -10 19 366 0
43 -10 19 -366 0
-72 56 29 367 0
-72 56 29 -367 0
71 -19 -24 368 0
71 -19 -24 -368 0
-11 62 -29 369 0
-11 62 -29 -369 0
-21 61 75 370 0
-21 61 75 -370 0
-57 -51 28 371 0
-57 -51 28 -371 0
-17 -54 -65 372 0
-17 -54 -65 -372 0
58 48 -13 373 0
58 48 -13 -373 0
72 16 -52 374 0
72 16 -52 -374 0
20 30 -41 375 0
20 30 -41 -375 0
-38 -75 25 376 0
-38 -75 25 -376 0
-75 -15 61 377 0
-75 -15 61 -377 0
-59 -42 10 378 0
-59 -42 10 -378 0
61 -45 -30 379 0
61 -45 -30 -379 0
-18 14 68 380 0
-18 14 68 -380 0
-33 -72 11 381 0
-33 -72 11 -381 0
-65 -62 24 382 0
-65 -62 24 -382 0
12 35 49 383 0
12 35 49 -383 0
-35 -16 -66 384 0
-35 -16 -66 -384 0
28 -70 74 385 0
28 -70 74 -385 0
-31 -10 29 386 0
-31 -10 29 -386 0
-50 57 -2 387 0
-50 57 -2 -387 0
-5 -43 -13 388 0
-5 -43 -13 -388 0
-1 24 59 389 0
-1 24 59 -389 0
-51 -40 30 390 0
-51 -40 30 -390 0
7 -16 17 391 0
7 -16 17 -391 0
-50 31 66 392 0
-50 31 66 -392 0
-29 33 -64 393 0
-29 33 -64 -393 0
-9 12 75 394 0
-9 12 75 -394 0
-27 54 52 395 0
-27 54 52 -395 0
64 -35 52 396 0
64 -35 52 -396 0
15 44 63 397 0
15 44 63 -397 0
26 49 -48 398 0
26 49 -48 -398 0
-66 24 -71 399 0
-66 24 -71 -399 0
-3 43 52 400 0
-3 43 52 -400 0
401 402 403 404 0
401 402 403 -404 0
401 402 -403 404 0
401 402 -403 -404 0
401 -402 403 404 0
401 -402 403 -404 0
401 -402 -403 404 0
401 -402 -403 -404 0
-401 402 403 404 0
-401 402 403 -404 0
-401 402 -403 404 0
-401 402 -403 -404 0
-401 -402 403 404 0
-401 -402 403 -404 0
-401 -402 -403 404 0
-401 -402 -403 -404 0
405 406 407 408 0
405 406 407 -408 0
405 406 -407 408 0
405 406 -407 -408 0
405 -406 407 408 0
405 -406 407 -408 0
405 -406 -407 408 0
405 -406 -407 -408 0
-405 406 407 408 0
-405 406 407 -408 0
-405 406 -407 408 0
-405 406 -407 -408 0
-405 -406 407 408 0
-405 -406 407 -408 0
-405 -406 -407 408 0
-405 -406 -407 -408 0
409 410 411 412 0
409 410 411 -412 0
409 410 -411 412 0
409 410 -411 -412 0
409 -410 411 412 0
409 -410 411 -412 0
409 -410 -411 412 0
409 -410 -411 -412 0
-409 410 411 412 0
-409 410 411 -412 0
-409 410 -411 412 0
-409 410 -411 -412 0
-409 -410 411 412 0
-409 -410 411 -412 0
-409 -410 -411 412 0
-409 -410 -411 -412 0
